************************************************************************
file with basedata            : mm53_.bas
initial value random generator: 1907935190
************************************************************************
projects                      :  1
jobs (incl. supersource/sink ):  12
horizon                       :  70
RESOURCES
  - renewable                 :  2   R
  - nonrenewable              :  2   N
  - doubly constrained        :  0   D
************************************************************************
PROJECT INFORMATION:
pronr.  #jobs rel.date duedate tardcost  MPM-Time
    1     10      0        9        9        9
************************************************************************
PRECEDENCE RELATIONS:
jobnr.    #modes  #successors   successors
   1        1          3           2   3   4
   2        3          2           5   6
   3        3          2           5  10
   4        3          1           9
   5        3          2           7  11
   6        3          3           7   8  10
   7        3          1           9
   8        3          1          11
   9        3          1          12
  10        3          1          12
  11        3          1          12
  12        1          0        
************************************************************************
REQUESTS/DURATIONS:
jobnr. mode duration  R 1  R 2  N 1  N 2
------------------------------------------------------------------------
  1      1     0       0    0    0    0
  2      1     1       6   10    3    7
         2     2       6    8    3    7
         3     6       1    7    2    5
  3      1     3       8    5    7    7
         2     6       4    2    7    4
         3     6       3    3    7    6
  4      1     1       3    9    7    9
         2     4       3    8    6    8
         3     7       3    5    6    8
  5      1     2       6   10    8    6
         2     5       4    6    8    6
         3    10       3    5    7    5
  6      1     1       6   10    8   10
         2     4       6    5    4   10
         3     4       4    2    6   10
  7      1     1       6    6    3    9
         2     6       5    6    3    7
         3    10       5    6    3    4
  8      1     4      10    7    5    5
         2     7       9    5    4    4
         3    10       9    4    3    4
  9      1     3       6    7    9    6
         2     3       4    9    9    7
         3     6       2    3    4    3
 10      1     1      10    9    4    7
         2     2       6    8    2    2
         3     2       5    8    3    1
 11      1     2      10    2    7    5
         2     8       9    2    4    5
         3     9       9    1    4    3
 12      1     0       0    0    0    0
************************************************************************
RESOURCEAVAILABILITIES:
  R 1  R 2  N 1  N 2
   21   21   46   52
************************************************************************
